benchmarks_vrp/CMT11/min_c/CMT11_6.vrp
NAME: CMT11_6
TYPE: CVRP
COMMENT: 1042.11 - Cluster Nr.6
DIMENSION: 16
CAPACITY: 200
EDGE_WEIGHT_TYPE: EUC_2D
NODE_COORD_TYPE: TWOD_COORDS
NODE_COORD_SECTION: 
11 93 82
16 90 88
7 94 86
14 10 45
5 93 84
1 85 85
8 85 81
2 83 83
6 90 77
4 93 89
12 87 86
9 95 80
3 87 80
10 85 89
13 99 89
15 83 80
DEPOT_SECTION: 
14
-1
DEMAND_SECTION: 
8 12
5 7
4 16
7 14
3 8
6 19
10 10
12 16
1 14
9 17
2 11
16 5
15 13
14 0
13 13
11 17
EOF
