benchmarks_vrp/CMT11/min_c/CMT11_6.tour
NAME: CMT11_6 solution
TYPE: TOUR
TOUR_SECTION:
14 2 1 12 10 16 4 13 7 5 11 9 6 3 8 15 -1
-1
EOF